; benchmark generated from python API
(set-info :status unknown)
(declare-fun W_S1_V3 () Bool)
(declare-fun DISJ_W_S1_R_S1 () Bool)
(declare-fun R_E1_V6 () Bool)
(declare-fun W_S1_V6 () Bool)
(declare-fun R_E2_V6 () Bool)
(declare-fun W_S1_V1 () Bool)
(declare-fun R_S1_V6 () Bool)
(declare-fun R_S1_V4 () Bool)
(declare-fun R_S1_V5 () Bool)
(declare-fun R_S1_V2 () Bool)
(declare-fun R_S1_V3 () Bool)
(declare-fun R_S1_V1 () Bool)
(declare-fun R_E2_V4 () Bool)
(declare-fun R_E2_V2 () Bool)
(declare-fun R_E1_V5 () Bool)
(declare-fun R_E2_V5 () Bool)
(declare-fun W_S1_V5 () Bool)
(declare-fun W_S1_V4 () Bool)
(declare-fun W_S1_V2 () Bool)
(declare-fun R_E1_V3 () Bool)
(declare-fun R_E1_V1 () Bool)
(declare-fun R_E2_V3 () Bool)
(declare-fun R_E2_V1 () Bool)
(declare-fun DISJ_W_S1_R_E1 () Bool)
(declare-fun DISJ_W_S1_R_E2 () Bool)
(assert
 (let (($x1879 (not DISJ_W_S1_R_S1)))
 (let (($x3566 (not (and W_S1_V6 R_E1_V6))))
 (let (($x2988 (not (and W_S1_V6 R_E2_V6))))
 (let (($x5110 (forall ((V2_0 Int) )(forall ((V5_0 Int) )(forall ((V4_0 Int) )(forall ((V6_0 Int) )(forall ((MW_S1_V1 Bool) )(forall ((MW_S1_V3 Bool) )(forall ((MW_S1_V2 Bool) )(forall ((MW_S1_V5 Bool) )(forall ((MW_S1_V4 Bool) )(forall ((MW_S1_V6 Bool) )(forall ((S1_V1_!8171 Int) )(forall ((S1_V1_!8178 Int) )(forall ((S1_V1_!8187 Int) )(forall ((S1_V1_!8193 Int) )(forall ((S1_V3_!8172 Int) )(forall ((S1_V3_!8179 Int) )(forall ((S1_V3_!8188 Int) )(forall ((S1_V3_!8194 Int) )(forall ((S1_V2_!8173 Int) )(forall ((S1_V2_!8180 Int) )(forall ((S1_V2_!8189 Int) )(forall ((S1_V2_!8195 Int) )(forall ((E1_!8168 Int) )(forall ((E1_!8184 Int) )(forall ((E1_!8186 Int) )(forall ((S1_V5_!8174 Int) )(forall ((S1_V5_!8181 Int) )(forall ((S1_V5_!8190 Int) )(forall ((S1_V5_!8196 Int) )(forall ((E2_!8169 Int) )(forall ((E2_!8170 Int) )(forall ((E2_!8177 Int) )(forall ((E2_!8185 Int) )(forall ((S1_V4_!8175 Int) )(forall ((S1_V4_!8182 Int) )(forall ((S1_V4_!8191 Int) )(forall ((S1_V4_!8197 Int) )(forall ((S1_V6_!8176 Int) )(forall ((S1_V6_!8183 Int) )(forall ((S1_V6_!8192 Int) )(forall ((S1_V6_!8198 Int) )(let ((?x3167 (ite MW_S1_V1 S1_V1_!8187 E1_!8186)))
 (let ((?x950 (+ 1 ?x3167)))
 (let ((?x2223 (ite MW_S1_V1 S1_V1_!8193 ?x950)))
 (let ((?x5994 (ite MW_S1_V1 S1_V1_!8171 E1_!8168)))
 (let ((?x3373 (+ 1 ?x5994)))
 (let ((?x3555 (ite MW_S1_V1 S1_V1_!8178 ?x3373)))
 (let (($x5736 (and (= ?x3555 ?x2223) (= (ite MW_S1_V3 S1_V3_!8179 E2_!8177) (ite MW_S1_V3 S1_V3_!8194 E2_!8185)) (= (ite MW_S1_V2 S1_V2_!8180 V2_0) (ite MW_S1_V2 S1_V2_!8195 V2_0)) (= (ite MW_S1_V5 S1_V5_!8181 V5_0) (ite MW_S1_V5 S1_V5_!8196 V5_0)) (= (ite MW_S1_V4 S1_V4_!8182 V4_0) (ite MW_S1_V4 S1_V4_!8197 V4_0)) (= (ite MW_S1_V6 S1_V6_!8183 V6_0) (ite MW_S1_V6 S1_V6_!8198 V6_0)))))
 (let (($x4413 (and (not (<= V4_0 E2_!8169)) (not (<= V2_0 E1_!8168)) (not (<= V4_0 E2_!8170)) (>= (ite MW_S1_V3 S1_V3_!8172 E2_!8170) (+ (- 1) (ite MW_S1_V4 S1_V4_!8175 V4_0))) (not (<= (ite MW_S1_V2 S1_V2_!8173 V2_0) ?x3373)) (not (<= (ite MW_S1_V4 S1_V4_!8175 V4_0) E2_!8177)) (>= (ite MW_S1_V3 S1_V3_!8179 E2_!8177) (+ (- 1) (ite MW_S1_V4 S1_V4_!8182 V4_0))) (>= ?x3555 (+ (- 1) (ite MW_S1_V2 S1_V2_!8180 V2_0))) (not (<= V2_0 E1_!8184)) (not (<= V4_0 E2_!8185)) (not (<= V2_0 E1_!8186)) (not (<= (ite MW_S1_V2 S1_V2_!8189 V2_0) ?x950)) (>= ?x2223 (+ (- 1) (ite MW_S1_V2 S1_V2_!8195 V2_0))) (>= (ite MW_S1_V3 S1_V3_!8194 E2_!8185) (+ (- 1) (ite MW_S1_V4 S1_V4_!8197 V4_0))))))
 (let (($x570 (= S1_V6_!8198 S1_V6_!8192)))
 (let (($x1045 (not R_S1_V6)))
 (let (($x3083 (or $x1045 (= (ite MW_S1_V6 S1_V6_!8192 V6_0) V6_0))))
 (let (($x503 (not R_S1_V4)))
 (let (($x1983 (or $x503 (= (ite MW_S1_V4 S1_V4_!8191 V4_0) V4_0))))
 (let (($x3326 (not R_S1_V5)))
 (let (($x421 (or $x3326 (= (ite MW_S1_V5 S1_V5_!8190 V5_0) V5_0))))
 (let (($x2189 (not R_S1_V2)))
 (let (($x5988 (or $x2189 (= (ite MW_S1_V2 S1_V2_!8189 V2_0) V2_0))))
 (let (($x4752 (and (or (not R_S1_V1) (= ?x3167 (+ (- 1) E1_!8186))) (or (not R_S1_V3) (= (ite MW_S1_V3 S1_V3_!8188 E2_!8185) E2_!8185)) $x5988 $x421 $x1983 $x3083)))
 (let (($x305 (= S1_V6_!8198 S1_V6_!8183)))
 (let (($x2212 (and (or (not R_S1_V1) (= ?x3167 ?x5994)) (or (not R_S1_V3) (= (ite MW_S1_V3 S1_V3_!8188 E2_!8185) E2_!8177)) (or $x2189 (= (ite MW_S1_V2 S1_V2_!8189 V2_0) (ite MW_S1_V2 S1_V2_!8173 V2_0))) (or $x3326 (= (ite MW_S1_V5 S1_V5_!8190 V5_0) (ite MW_S1_V5 S1_V5_!8174 V5_0))) (or $x503 (= (ite MW_S1_V4 S1_V4_!8191 V4_0) (ite MW_S1_V4 S1_V4_!8175 V4_0))) (or $x1045 (= (ite MW_S1_V6 S1_V6_!8192 V6_0) (ite MW_S1_V6 S1_V6_!8176 V6_0))))))
 (let (($x2494 (not $x2212)))
 (let (($x800 (and (or (not R_S1_V1) (= ?x3167 (+ (- 1) E1_!8168))) (or (not R_S1_V3) (= (ite MW_S1_V3 S1_V3_!8188 E2_!8185) E2_!8170)) $x5988 $x421 $x1983 $x3083)))
 (let (($x1972 (not $x800)))
 (let ((?x164 (ite MW_S1_V6 S1_V6_!8176 V6_0)))
 (let (($x5856 (= V6_0 ?x164)))
 (let (($x2849 (or $x1045 $x5856)))
 (let ((?x1138 (ite MW_S1_V4 S1_V4_!8175 V4_0)))
 (let (($x4742 (= V4_0 ?x1138)))
 (let (($x1770 (or $x503 $x4742)))
 (let (($x5250 (or $x3326 (= V5_0 (ite MW_S1_V5 S1_V5_!8174 V5_0)))))
 (let ((?x3193 (ite MW_S1_V2 S1_V2_!8173 V2_0)))
 (let (($x256 (= V2_0 ?x3193)))
 (let (($x5037 (or $x2189 $x256)))
 (let (($x5832 (and (or (not R_S1_V1) (= E1_!8186 ?x3373)) (or (not R_S1_V3) (= E2_!8185 E2_!8177)) $x5037 $x5250 $x1770 $x2849)))
 (let (($x529 (not $x5832)))
 (let (($x1024 (and (or (not R_S1_V1) (= E1_!8186 E1_!8168)) (or (not R_S1_V3) (= E2_!8185 E2_!8170)))))
 (let (($x771 (not $x1024)))
 (let (($x62 (and (or (not R_S1_V1) (= E1_!8168 ?x3373)) (or (not R_S1_V3) (= E2_!8170 E2_!8177)) $x5037 $x5250 $x1770 $x2849)))
 (let (($x3424 (not $x62)))
 (let (($x5049 (or $x1045 (= V6_0 (ite MW_S1_V6 S1_V6_!8192 V6_0)))))
 (let (($x2514 (or $x503 (= V4_0 (ite MW_S1_V4 S1_V4_!8191 V4_0)))))
 (let (($x4711 (or $x3326 (= V5_0 (ite MW_S1_V5 S1_V5_!8190 V5_0)))))
 (let (($x913 (or $x2189 (= V2_0 (ite MW_S1_V2 S1_V2_!8189 V2_0)))))
 (let (($x3364 (and (or (not R_S1_V1) (= E1_!8186 ?x950)) (or (not R_S1_V3) (= E2_!8185 (ite MW_S1_V3 S1_V3_!8188 E2_!8185))) $x913 $x4711 $x2514 $x5049)))
 (let (($x5783 (not $x3364)))
 (let (($x3118 (and (or (not R_S1_V1) (= E1_!8168 ?x950)) (or (not R_S1_V3) (= E2_!8170 (ite MW_S1_V3 S1_V3_!8188 E2_!8185))) $x913 $x4711 $x2514 $x5049)))
 (let (($x4088 (not $x3118)))
 (let (($x1513 (and (or (not R_S1_V1) (= E1_!8168 E1_!8186)) (or (not R_S1_V3) (= E2_!8170 E2_!8185)))))
 (let (($x2232 (not $x1513)))
 (let (($x3660 (= E2_!8185 E2_!8177)))
 (let (($x2274 (and (or (not R_E2_V2) $x256) (or (not R_E2_V4) $x4742) (or (not R_E2_V6) $x5856))))
 (let (($x1285 (= E2_!8185 E2_!8170)))
 (let (($x685 (= E2_!8177 E2_!8170)))
 (let (($x1736 (and (or (not R_E2_V2) (= ?x3193 V2_0)) (or (not R_E2_V4) (= ?x1138 V4_0)) (or (not R_E2_V6) (= ?x164 V6_0)))))
 (let (($x1144 (not $x1736)))
 (let (($x4882 (= E1_!8186 E1_!8168)))
 (let (($x2370 (and (or (not R_S1_V1) (= ?x5994 ?x3167)) (or (not R_S1_V3) (= E2_!8177 (ite MW_S1_V3 S1_V3_!8188 E2_!8185))) (or $x2189 (= ?x3193 (ite MW_S1_V2 S1_V2_!8189 V2_0))) (or $x3326 (= (ite MW_S1_V5 S1_V5_!8174 V5_0) (ite MW_S1_V5 S1_V5_!8190 V5_0))) (or $x503 (= ?x1138 (ite MW_S1_V4 S1_V4_!8191 V4_0))) (or $x1045 (= ?x164 (ite MW_S1_V6 S1_V6_!8192 V6_0))))))
 (let (($x3026 (not $x2370)))
 (let (($x5351 (= ?x164 V6_0)))
 (let (($x2499 (or $x1045 $x5351)))
 (let (($x3421 (= ?x1138 V4_0)))
 (let (($x3905 (or $x503 $x3421)))
 (let (($x3276 (or $x3326 (= (ite MW_S1_V5 S1_V5_!8174 V5_0) V5_0))))
 (let (($x2872 (= ?x3193 V2_0)))
 (let (($x571 (or $x2189 $x2872)))
 (let (($x1862 (and (or (not R_S1_V1) (= ?x5994 (+ (- 1) E1_!8186))) (or (not R_S1_V3) (= E2_!8177 E2_!8185)) $x571 $x3276 $x3905 $x2499)))
 (let (($x2809 (not $x1862)))
 (let (($x3901 (and (or (not R_S1_V1) (= ?x5994 (+ (- 1) E1_!8168))) (or (not R_S1_V3) $x685) $x571 $x3276 $x3905 $x2499)))
 (let (($x2576 (and (or $x3424 (= S1_V1_!8171 S1_V1_!8178)) (or $x2232 (= S1_V1_!8171 S1_V1_!8187)) (or $x4088 (= S1_V1_!8171 S1_V1_!8193)) (or $x2809 (= S1_V1_!8178 S1_V1_!8187)) (or $x3026 (= S1_V1_!8178 S1_V1_!8193)) (or $x5783 (= S1_V1_!8187 S1_V1_!8193)) (or (not $x3901) (= S1_V3_!8179 S1_V3_!8172)) (or $x2809 (= S1_V3_!8179 S1_V3_!8188)) (or $x3026 (= S1_V3_!8179 S1_V3_!8194)) (or $x771 (= S1_V3_!8188 S1_V3_!8172)) (or $x5783 (= S1_V3_!8188 S1_V3_!8194)) (or $x1972 (= S1_V3_!8194 S1_V3_!8172)) (or $x3424 (= S1_V2_!8173 S1_V2_!8180)) (or $x2232 (= S1_V2_!8173 S1_V2_!8189)) (or $x4088 (= S1_V2_!8173 S1_V2_!8195)) (or $x529 (= S1_V2_!8189 S1_V2_!8180)) (or $x5783 (= S1_V2_!8189 S1_V2_!8195)) (or $x2494 (= S1_V2_!8195 S1_V2_!8180)) (= E1_!8184 E1_!8168) (= E1_!8184 E1_!8186) $x4882 (or $x3424 (= S1_V5_!8174 S1_V5_!8181)) (or $x2232 (= S1_V5_!8174 S1_V5_!8190)) (or $x4088 (= S1_V5_!8174 S1_V5_!8196)) (or $x529 (= S1_V5_!8190 S1_V5_!8181)) (or $x5783 (= S1_V5_!8190 S1_V5_!8196)) (or $x2494 (= S1_V5_!8196 S1_V5_!8181)) (= E2_!8170 E2_!8169) (or $x1144 (= E2_!8177 E2_!8169)) (or $x1144 $x685) (= E2_!8185 E2_!8169) $x1285 (or (not $x2274) $x3660) (or $x3424 (= S1_V4_!8175 S1_V4_!8182)) (or $x2232 (= S1_V4_!8175 S1_V4_!8191)) (or $x4088 (= S1_V4_!8175 S1_V4_!8197)) (or $x529 (= S1_V4_!8191 S1_V4_!8182)) (or $x5783 (= S1_V4_!8191 S1_V4_!8197)) (or $x2494 (= S1_V4_!8197 S1_V4_!8182)) (or $x3424 (= S1_V6_!8176 S1_V6_!8183)) (or $x771 (= S1_V6_!8192 S1_V6_!8176)) (or $x529 (= S1_V6_!8192 S1_V6_!8183)) (or $x1972 (= S1_V6_!8198 S1_V6_!8176)) (or $x2494 $x305) (or (not $x4752) $x570) (or (not MW_S1_V1) W_S1_V1) (or (not MW_S1_V3) W_S1_V3) (not MW_S1_V2) (not MW_S1_V4) (or (not MW_S1_V6) W_S1_V6))))
 (or (not $x2576) (not $x4413) $x5736)))))))))))))))))))))))))))))))))))))))))))))))))))))))))))))))))))))))
 )
 )
 )
 )
 )
 )
 )
 )
 )
 )
 )
 )
 )
 )
 )
 )
 )
 )
 )
 )
 )
 )
 )
 )
 )
 )
 )
 )
 )
 )
 )
 )
 )
 )
 )
 )
 )
 )
 )
 )
 ))
 (let (($x3955 (not R_E1_V5)))
 (let (($x2158 (and W_S1_V6 R_S1_V6)))
 (let (($x3082 (and W_S1_V3 R_S1_V3)))
 (let (($x5102 (and W_S1_V1 R_S1_V1)))
 (let (($x3123 (= DISJ_W_S1_R_S1 (not (or $x5102 $x3082 R_S1_V5 $x2158)))))
 (let (($x4143 (not R_E2_V5)))
 (let (($x259 (or DISJ_W_S1_R_S1 (not W_S1_V1))))
 (let (($x2199 (not W_S1_V4)))
 (let (($x5995 (not W_S1_V2)))
 (let (($x2005 (not R_E1_V3)))
 (let (($x253 (not R_E1_V1)))
 (let (($x150 (not R_E2_V3)))
 (let (($x290 (not R_E2_V1)))
 (let (($x2741 (and DISJ_W_S1_R_E2 DISJ_W_S1_R_E1 $x290 $x150 $x253 $x2005 $x5995 $x2199 $x259 W_S1_V5 $x4143 $x3123 $x3955 $x5110 $x2988 $x3566)))
 (and $x2741 $x1879 W_S1_V3))))))))))))))))))))
(check-sat)
